job_count = 10 ;
duration = [|14, 19, 1|14, 11, 7|11, 10, 5|7, 13, 9|24, 2, 2|17, 17, 8|6, 9, 6|22, 10, 4|21, 18, 7|18, 7, 4|] ;
machine_count = 3 ;
cost = [|11, 39, 42|13, 20, 39|17, 31, 50|14, 38, 47|19, 34, 59|17, 24, 42|11, 37, 38|11, 27, 35|17, 35, 36|16, 30, 46|] ;
deadline = [22, 22, 22, 22, 22, 22, 22, 22, 22, 22] ;
release = [0, 0, 0, 0, 0, 0, 0, 0, 0, 0] ;
resource = [|6, 6, 6|5, 5, 5|6, 6, 6|9, 9, 9|4, 4, 4|1, 1, 1|3, 3, 3|2, 2, 2|9, 9, 9|7, 7, 7|] ;
capacities = [10, 10, 10] ;
